15	8
8	1 1 8 2 1 9 7 9 2 6 2 3 1 2 4 3 7 5 3 1 13 3 9 8 9 3 2 4 4 8 3 2 2 5 4 6 7 2 6 1 4 7 
7	1 6 1 2 6 2 4 7 1 1 9 2 6 3 3 1 3 2 3 4 8 3 2 1 6 2 1 7 3 
6	1 6 1 3 2 3 4 8 3 2 3 3 3 7 1 4 4 2 4 1 7 5 2 1 7 3 7 2 4 3 3 1 
5	1 7 1 1 1 8 2 1 8 7 9 2 6 5 3 1 2 4 5 5 7 
7	1 7 1 2 1 2 7 9 2 4 5 3 1 3 1 4 3 9 8 9 2 1 6 3 7 3 2 1 4 8 3 2 2 4 1 5 7 
9	1 6 3 2 4 3 3 1 3 3 1 7 1 4 4 2 6 1 4 7 2 4 8 5 7 3 1 3 3 9 8 9 2 1 2 3 7 1 6 1 2 1 6 7 9 
5	2 5 7 6 7 2 1 5 3 7 2 6 2 4 7 1 6 2 2 6 9 3 1 
6	2 4 6 5 7 2 5 7 6 7 3 2 4 4 8 3 2 1 6 1 1 6 1 2 1 5 7 9 
9	1 1 6 2 1 2 7 9 2 4 1 3 1 3 1 9 3 9 8 9 2 4 3 7 5 2 6 1 4 7 1 7 2 2 1 4 3 7 3 2 3 4 8 3 2 
5	2 5 5 6 7 1 1 7 1 7 3 2 4 7 5 7 2 1 6 7 9 
4	3 1 5 3 9 8 9 1 1 8 3 2 1 4 8 3 2 2 4 1 7 5 
6	2 4 1 7 5 1 6 2 1 1 4 2 1 10 3 7 3 1 11 3 9 8 9 1 7 1 
4	1 6 1 2 6 2 3 1 2 6 1 4 7 2 5 6 6 7 
3	2 5 8 6 7 1 6 1 2 4 3 7 5 
6	2 4 4 5 7 1 7 2 3 1 13 3 9 8 9 3 2 3 4 8 3 2 3 3 3 7 1 4 4 1 1 5 
